4 
5  25 55 
6  10 25 32 40 48 55 
7  03 10 18 25 33 40 48 55 
8  03 10 18 25 33 40 48 55 
9  03 10 18 25 33 40 48 55 
10  03 10 18 25 33 40 48 55 
11  03 10 18 25 33 40 48 55 
12  03 10 18 25 33 40 48 55 
13  03 10 19 26 34 41 49 56 
14  04 11 19 26 34 41 49 56 
15  04 11 19 26 34 41 49 56 
16  04 11 19 26 34 41 49 56 
17  04 11 19 26 34 41 49 56 
18  04 11 19 26 34 41 49 56 
19  04 11 18 25 33 40 48 55 
20  03 10 18 25 33 40 51 
21  06 21 36 51 
22  06 20 35 46 
23  01 16 31 46 
0 
